c PMC file for PBN EPFL/random_control/dec_distill_EPFL/random_control/dec_miter written by probABC
p cnf 56 72
c ind 1 2 3 4 5 6 7 8 25 26 27 28 29 30 31 32 33 34 35 36 37 38 39 40 41 42 43 44 45 46 47 48 0
18 9 10 0
-18 -9 0
-18 -10 0
19 11 12 0
-19 -11 0
-19 -12 0
20 13 14 0
-20 -13 0
-20 -14 0
21 15 16 0
-21 -15 0
-21 -16 0
22 -20 -21 0
-22 20 0
-22 21 0
23 -18 -19 0
-23 18 0
-23 19 0
24 -22 -23 0
-24 22 0
-24 23 0
17 24 0
-17 -24 0
17 0
9 -25 -49 0
-9 25 0
-9 49 0
49 -26 -27 0
-49 26 0
-49 27 0
10 -28 -50 0
-10 28 0
-10 50 0
50 -29 -30 0
-50 29 0
-50 30 0
11 -31 -51 0
-11 31 0
-11 51 0
51 -32 -33 0
-51 32 0
-51 33 0
12 -34 -52 0
-12 34 0
-12 52 0
52 -35 -36 0
-52 35 0
-52 36 0
13 -37 -53 0
-13 37 0
-13 53 0
53 -38 -39 0
-53 38 0
-53 39 0
14 -40 -54 0
-14 40 0
-14 54 0
54 -41 -42 0
-54 41 0
-54 42 0
15 -43 -55 0
-15 43 0
-15 55 0
55 -44 -45 0
-55 44 0
-55 45 0
16 -46 -56 0
-16 46 0
-16 56 0
56 -47 -48 0
-56 47 0
-56 48 0
